certificates/rado_a13_c256_N36.cnf
c Rad2 upper bound instance: x1 + 13*x2 - x3 = 256, interval [1,36]
p cnf 36 198
1 5 20 0
-1 -5 -20 0
1 18 21 0
-1 -18 -21 0
1 22 31 0
-1 -22 -31 0
2 6 20 0
-2 -6 -20 0
2 19 21 0
-2 -19 -21 0
2 22 32 0
-2 -22 -32 0
3 7 20 0
-3 -7 -20 0
3 20 21 0
-3 -20 -21 0
3 22 33 0
-3 -22 -33 0
4 8 20 0
-4 -8 -20 0
4 21 0
-4 -21 0
4 22 34 0
-4 -22 -34 0
5 9 20 0
-5 -9 -20 0
5 21 22 0
-5 -21 -22 0
5 22 35 0
-5 -22 -35 0
6 10 20 0
-6 -10 -20 0
6 21 23 0
-6 -21 -23 0
6 22 36 0
-6 -22 -36 0
7 11 20 0
-7 -11 -20 0
7 21 24 0
-7 -21 -24 0
8 12 20 0
-8 -12 -20 0
8 21 25 0
-8 -21 -25 0
9 13 20 0
-9 -13 -20 0
9 21 26 0
-9 -21 -26 0
1 10 19 0
-1 -10 -19 0
10 14 20 0
-10 -14 -20 0
10 21 27 0
-10 -21 -27 0
2 11 19 0
-2 -11 -19 0
11 15 20 0
-11 -15 -20 0
11 21 28 0
-11 -21 -28 0
3 12 19 0
-3 -12 -19 0
12 16 20 0
-12 -16 -20 0
12 21 29 0
-12 -21 -29 0
4 13 19 0
-4 -13 -19 0
13 17 20 0
-13 -17 -20 0
13 21 30 0
-13 -21 -30 0
5 14 19 0
-5 -14 -19 0
14 18 20 0
-14 -18 -20 0
14 21 31 0
-14 -21 -31 0
6 15 19 0
-6 -15 -19 0
15 19 20 0
-15 -19 -20 0
15 21 32 0
-15 -21 -32 0
7 16 19 0
-7 -16 -19 0
16 20 0
-16 -20 0
16 21 33 0
-16 -21 -33 0
8 17 19 0
-8 -17 -19 0
17 20 21 0
-17 -20 -21 0
17 21 34 0
-17 -21 -34 0
9 18 19 0
-9 -18 -19 0
18 20 22 0
-18 -20 -22 0
18 21 35 0
-18 -21 -35 0
10 19 0
-10 -19 0
19 20 23 0
-19 -20 -23 0
19 21 36 0
-19 -21 -36 0
11 19 20 0
-11 -19 -20 0
20 24 0
-20 -24 0
12 19 21 0
-12 -19 -21 0
20 21 25 0
-20 -21 -25 0
13 19 22 0
-13 -19 -22 0
20 22 26 0
-20 -22 -26 0
1 18 23 0
-1 -18 -23 0
14 19 23 0
-14 -19 -23 0
20 23 27 0
-20 -23 -27 0
2 18 24 0
-2 -18 -24 0
15 19 24 0
-15 -19 -24 0
20 24 28 0
-20 -24 -28 0
3 18 25 0
-3 -18 -25 0
16 19 25 0
-16 -19 -25 0
20 25 29 0
-20 -25 -29 0
4 18 26 0
-4 -18 -26 0
17 19 26 0
-17 -19 -26 0
20 26 30 0
-20 -26 -30 0
5 18 27 0
-5 -18 -27 0
18 19 27 0
-18 -19 -27 0
20 27 31 0
-20 -27 -31 0
6 18 28 0
-6 -18 -28 0
19 28 0
-19 -28 0
20 28 32 0
-20 -28 -32 0
7 18 29 0
-7 -18 -29 0
19 20 29 0
-19 -20 -29 0
20 29 33 0
-20 -29 -33 0
8 18 30 0
-8 -18 -30 0
19 21 30 0
-19 -21 -30 0
20 30 34 0
-20 -30 -34 0
9 18 31 0
-9 -18 -31 0
19 22 31 0
-19 -22 -31 0
20 31 35 0
-20 -31 -35 0
10 18 32 0
-10 -18 -32 0
19 23 32 0
-19 -23 -32 0
20 32 36 0
-20 -32 -36 0
11 18 33 0
-11 -18 -33 0
19 24 33 0
-19 -24 -33 0
12 18 34 0
-12 -18 -34 0
19 25 34 0
-19 -25 -34 0
13 18 35 0
-13 -18 -35 0
19 26 35 0
-19 -26 -35 0
1 17 36 0
-1 -17 -36 0
14 18 36 0
-14 -18 -36 0
19 27 36 0
-19 -27 -36 0
