certificates/rado_a13_c256_N36.drat
20 -33 -34 0
-25 -20 -34 0
-20 -34 -36 0
-21 -35 -36 0
-34 21 -36 0
21 -36 0
d -34 21 -36 0
-21 -36 0
d -19 -21 -36 0
-36 0
-20 25 -21 0
20 -21 0
-20 -21 0
d -25 -20 -21 0
d -20 25 -21 0
-21 0
4 0
19 0
-10 0
-28 0
-13 0
27 0
11 0
30 0
-18 0
-20 0
-2 0
1 0
14 0
22 0
35 0
6 0
32 0
16 0
24 0
3 0
25 0
17 0
9 0
-5 0
-23 0
-31 0
-34 0
-26 0
-15 0
0
